(set-logic QF_S)
(set-option :strings-exp true)
(set-option :produce-models true)
(declare-fun literal_0 () String)
(assert (= literal_0 "\x2f\x66\x69\x6c\x74\x65\x72\x2f\x6d\x65\x64\x69\x61\x70\x6c\x75\x67\x69\x6e\x2f\x66\x69\x6c\x74\x65\x72\x2e\x70\x68\x70"))
(assert (str.in.re literal_0 (re.++ (re.* re.allchar) (re.++ (str.to.re "\x2f\x65\x76\x69\x6c") (re.* re.allchar)))))
(check-sat)
(get-model)
